(set-info :Origin "This instance was generated by: BanditFuzz-- an RL fuzzer for SMT solvers" )
(set-info :Author "Joe Scott, Fed Mora, Vijay Ganesh" )
(set-info :Contact "Joe Scott, joseph.scott@uwaterloo.ca")
(set-logic QF_BV)
(declare-const bool_0 Bool)
(declare-const bool_1 Bool)
(declare-const bool_2 Bool)
(declare-const bool_3 Bool)
(declare-const bool_4 Bool)
(declare-const bv_0 (_ BitVec 32))
(declare-const bv_1 (_ BitVec 32))
(declare-const bv_2 (_ BitVec 32))
(declare-const bv_3 (_ BitVec 32))
(declare-const bv_4 (_ BitVec 32))
(assert (bvsge (bvnor (bvnand #x7f0bc0b2  bv_0) (bvnor bv_1 #xd8f84904 )) (bvsmod (bvshl bv_0 bv_2) (bvxor bv_2 bv_4))))
(assert (or (bvsle (bvxnor bv_2 #x1ad21506 ) (bvmul #x298c1e7a  #x51d23f93 )) (bvsge (bvlshr #x83863731  #x8e0eb384 ) (bvsrem #x9c3ffe5d  #x92e4a204 ))))
(assert (bvuge (bvxor (bvshl bv_2 bv_0) (bvor #xdec52f2b  #x514d7496 )) (bvxnor (bvmul bv_1 bv_0) (bvxnor bv_1 bv_3))))
(assert (bvule (bvxor (bvnand #x2dbc7a48  #x28d0fe72 ) (bvor #x0a918fff  bv_1)) (bvnand (bvudiv #x687c1333  bv_0) (bvadd bv_3 #x75301811 ))))
(assert (bvslt (bvsrem (bvxor #x584a693f  bv_4) (bvurem #x37a7ed30  bv_1)) (bvadd (bvlshr bv_1 bv_0) (bvurem #x52c2dae1  bv_1))))
(check-sat)
(exit)
